4 10 6 18 15 7 8 14 11 5 9 12 17 13 2 0 1 3 19 16  
4 10 6 18 15 14 7 8 11 5 9 12 17 13 2 1 0 3 19 16  
4 10 6 18 15 14 0 8 11 12 17 16 9 19 5 2 3 1 7 13  
4 10 6 18 15 14 0 8 11 12 17 5 9 19 2 1 13 16 7 3  
4 10 6 18 15 14 0 8 11 12 17 1 5 9 13 2 7 19 16 3  
4 10 18 15 6 14 0 8 11 12 17 16 5 9 13 19 1 7 2 3  
4 10 6 18 15 14 7 8 11 5 9 16 17 13 2 19 12 0 1 3  
4 10 6 18 15 14 0 8 11 12 17 16 9 19 5 7 3 13 2 1  
4 10 6 18 15 14 0 8 11 12 17 1 5 9 19 2 7 13 16 3  
4 10 6 18 15 14 0 8 11 12 17 16 9 1 5 7 13 2 3 19  
4 10 6 18 15 14 7 11 8 5 17 12 9 13 1 0 2 19 16 3  
4 10 6 18 15 14 0 8 11 12 17 16 9 19 5 2 1 7 13 3  
4 10 6 18 15 14 0 8 11 17 12 9 19 16 5 2 3 1 7 13  
4 10 6 18 15 14 0 8 11 12 17 16 9 1 5 13 7 2 3 19  
4 10 6 18 15 7 0 8 11 12 17 1 5 9 13 2 19 16 3 14  
4 10 6 18 15 14 0 8 11 12 17 1 5 9 13 2 19 16 7 3  
4 10 6 18 15 14 0 8 11 12 17 5 9 19 2 1 13 16 7 3  
4 10 6 18 15 14 0 8 11 12 17 16 9 19 5 7 3 13 2 1  
4 10 6 18 15 14 0 8 11 12 17 16 9 19 5 7 3 1 2 13  
4 10 6 18 15 14 0 8 11 12 17 16 9 19 5 7 1 13 2 3  
4 10 6 18 15 14 0 8 11 16 17 12 9 19 5 7 3 13 2 1  
4 10 6 18 15 14 0 8 11 12 17 16 9 19 5 7 1 13 2 3  
4 10 6 18 15 14 0 8 16 11 17 12 9 19 5 7 1 13 2 3  
4 10 6 18 15 14 0 8 11 12 17 16 9 19 5 7 1 13 2 3  
4 10 6 18 15 14 7 8 11 17 12 9 19 16 5 2 3 1 0 13  
4 10 6 15 18 14 0 8 11 17 12 9 19 16 5 2 13 7 1 3  
4 10 6 18 15 14 0 8 11 12 17 9 13 16 5 7 2 1 3 19  
4 10 6 18 15 14 0 8 11 16 17 12 9 19 5 3 1 7 13 2  
4 10 6 18 15 14 17 8 11 12 0 16 9 1 5 13 7 2 3 19  
4 10 6 18 15 14 0 8 11 12 17 16 9 1 5 13 2 7 3 19  
4 10 6 18 15 14 7 8 11 17 12 9 19 16 5 0 3 13 2 1  
4 10 6 18 15 14 0 8 11 17 12 9 19 16 5 13 2 7 3 1  
4 10 6 18 15 14 7 11 8 5 17 12 9 13 1 0 2 19 16 3  
4 10 6 15 18 14 0 8 11 17 12 9 19 16 5 2 13 7 1 3  
4 10 6 18 15 14 7 8 11 17 12 5 9 13 2 0 1 19 16 3  
4 10 6 18 15 14 0 8 11 17 12 9 19 16 5 2 13 7 1 3  
4 10 6 18 15 14 7 8 11 17 12 9 19 16 5 2 3 1 0 13  
4 10 6 15 18 14 0 8 11 17 12 9 19 5 16 13 2 1 7 3  
4 10 6 18 15 14 17 8 11 12 0 16 9 19 5 7 1 13 2 3  
4 10 6 18 15 7 5 9 19 11 0 8 12 17 1 13 2 16 3 14  
4 10 6 18 15 14 17 8 11 12 0 16 9 1 5 13 7 2 3 19  
4 10 6 15 18 11 14 17 12 0 1 7 5 9 13 2 19 16 3 8  
4 10 6 15 18 14 17 8 11 12 0 16 9 19 5 7 3 1 2 13  
4 10 6 15 18 14 17 8 11 16 0 1 5 9 19 2 13 12 7 3  
4 10 18 6 15 14 0 8 11 17 12 16 5 9 13 2 7 3 1 19  
4 10 6 18 15 11 5 9 19 16 7 2 0 13 12 17 1 3 14 8  
4 10 6 18 15 14 7 8 11 17 12 9 19 16 5 2 13 0 1 3  
4 10 6 18 15 14 7 8 11 5 9 16 17 13 2 19 12 0 1 3  
6 10 4 15 18 7 8 0 11 12 17 1 5 9 13 2 19 16 3 14  
4 10 6 18 15 14 0 8 11 17 12 9 19 16 5 1 7 13 2 3  
4 10 6 18 15 14 0 8 11 7 16 17 12 5 9 13 2 1 3 19  
10 4 11 15 6 5 18 14 13 17 12 0 1 7 2 9 19 16 3 8  
4 10 6 18 15 14 0 8 11 7 12 5 9 19 2 17 1 13 16 3  
4 10 6 18 15 14 7 8 11 17 12 0 1 5 9 19 2 13 16 3  
4 10 6 18 15 14 0 8 11 12 17 16 9 19 5 2 1 7 13 3  
4 10 18 15 6 14 0 8 11 16 17 12 9 19 5 2 3 1 7 13  
4 10 6 18 15 14 0 8 11 17 12 9 19 16 5 2 13 7 1 3  
4 10 6 18 15 11 14 7 12 0 1 17 5 9 13 2 19 16 3 8  
6 10 4 15 18 11 14 17 12 0 1 7 5 9 13 2 19 16 3 8  
4 10 6 18 15 14 0 8 11 16 17 12 9 19 5 7 3 1 2 13  
